data;

param n:=27;
param p:=3;
param r:=[1] 0 [2] 0 [3] 5 [4] 9 [5] 5 [6] 12 [7] 13 [8] 5 [9] 0 [10] 7 [11] 30 [12] 31 [13] 1 [14] 25 [15] 15 [16] 10 [17] 15 [18] 10 [19] 11 [20] 38 [21] 34 [22] 50 [23] 63 [24] 12 [25] 44 [26] 65 [27] 47 ;
param w:=[1] 41 [2] 56 [3] 52 [4] 58 [5] 40 [6] 1 [7] 25 [8] 19 [9] 53 [10] 24 [11] 100 [12] 88 [13] 89 [14] 40 [15] 28 [16] 15 [17] 32 [18] 26 [19] 74 [20] 82 [21] 23 [22] 84 [23] 79 [24] 89 [25] 18 [26] 79 [27] 96 ;

end;
